(set-option :produce-models true)
(set-logic QF_LRA)
(set-info :notes | Strip-packing problem.|)
(declare-fun x0 () Real)
(declare-fun y0 () Real)
(declare-fun x1 () Real)
(declare-fun y1 () Real)
(declare-fun x2 () Real)
(declare-fun y2 () Real)
(declare-fun x3 () Real)
(declare-fun y3 () Real)
(declare-fun x4 () Real)
(declare-fun y4 () Real)
(declare-fun x5 () Real)
(declare-fun y5 () Real)
(declare-fun x6 () Real)
(declare-fun y6 () Real)
(declare-fun x7 () Real)
(declare-fun y7 () Real)
(declare-fun x8 () Real)
(declare-fun y8 () Real)
(declare-fun z () Real)
(declare-fun c () Real)
(assert (and (= c z) (and (>= x0 0) 
(and (>= y0 0) 
(and (>= x1 0) 
(and (>= y1 0) 
(and (>= x2 0) 
(and (>= y2 0) 
(and (>= x3 0) 
(and (>= y3 0) 
(and (>= x4 0) 
(and (>= y4 0) 
(and (>= x5 0) 
(and (>= y5 0) 
(and (>= x6 0) 
(and (>= y6 0) 
(and (>= x7 0) 
(and (>= y7 0) 
(and (>= x8 0) 
(and (>= y8 0) 
(and (>= z 0) 
(and (>= c 0) 
(and (<= (+ x0 0.2107803037) z) 
(and (<= 0.9395920038 y0) 
(and (<= y0 1.5) 
(and (<= x0 (- 2.2557221442 0.2107803037)) 
(and (>= x0 0) 
(and (<= (+ x1 0.5102803541) z) 
(and (<= 0.9168193762 y1) 
(and (<= y1 1.5) 
(and (<= x1 (- 2.2557221442 0.5102803541)) 
(and (>= x1 0) 
(and (<= (+ x2 0.1528292723) z) 
(and (<= 0.7725764712 y2) 
(and (<= y2 1.5) 
(and (<= x2 (- 2.2557221442 0.1528292723)) 
(and (>= x2 0) 
(and (<= (+ x3 0.5818786782) z) 
(and (<= 0.7626947963 y3) 
(and (<= y3 1.5) 
(and (<= x3 (- 2.2557221442 0.5818786782)) 
(and (>= x3 0) 
(and (<= (+ x4 0.7999535359) z) 
(and (<= 0.7030258771 y4) 
(and (<= y4 1.5) 
(and (<= x4 (- 2.2557221442 0.7999535359)) 
(and (>= x4 0) 
(and (<= (+ x5 0.3409047916) z) 
(and (<= 0.4098472454 y5) 
(and (<= y5 1.5) 
(and (<= x5 (- 2.2557221442 0.3409047916)) 
(and (>= x5 0) 
(and (<= (+ x6 0.6986178625) z) 
(and (<= 0.1592361894 y6) 
(and (<= y6 1.5) 
(and (<= x6 (- 2.2557221442 0.6986178625)) 
(and (>= x6 0) 
(and (<= (+ x7 0.6294433589) z) 
(and (<= 0.0498145641 y7) 
(and (<= y7 1.5) 
(and (<= x7 (- 2.2557221442 0.6294433589)) 
(and (>= x7 0) 
(and (<= (+ x8 0.393124284) z) 
(and (<= 0.0188309149 y8) 
(and (<= y8 1.5) 
(and (<= x8 (- 2.2557221442 0.393124284)) 
(and (>= x8 0) 
(and (<= c 2.2557221442) 
(and (or (<= (+ x0 0.2107803037) x1) (or (<= (+ x1 0.5102803541) x0) (or (>= (- y0 0.9395920038) y1) (or (>= (- y1 0.9168193762) y0))))) 
(and (or (<= (+ x0 0.2107803037) x2) (or (<= (+ x2 0.1528292723) x0) (or (>= (- y0 0.9395920038) y2) (or (>= (- y2 0.7725764712) y0))))) 
(and (or (<= (+ x0 0.2107803037) x3) (or (<= (+ x3 0.5818786782) x0) (or (>= (- y0 0.9395920038) y3) (or (>= (- y3 0.7626947963) y0))))) 
(and (or (<= (+ x0 0.2107803037) x4) (or (<= (+ x4 0.7999535359) x0) (or (>= (- y0 0.9395920038) y4) (or (>= (- y4 0.7030258771) y0))))) 
(and (or (<= (+ x0 0.2107803037) x5) (or (<= (+ x5 0.3409047916) x0) (or (>= (- y0 0.9395920038) y5) (or (>= (- y5 0.4098472454) y0))))) 
(and (or (<= (+ x0 0.2107803037) x6) (or (<= (+ x6 0.6986178625) x0) (or (>= (- y0 0.9395920038) y6) (or (>= (- y6 0.1592361894) y0))))) 
(and (or (<= (+ x0 0.2107803037) x7) (or (<= (+ x7 0.6294433589) x0) (or (>= (- y0 0.9395920038) y7) (or (>= (- y7 0.0498145641) y0))))) 
(and (or (<= (+ x0 0.2107803037) x8) (or (<= (+ x8 0.393124284) x0) (or (>= (- y0 0.9395920038) y8) (or (>= (- y8 0.0188309149) y0))))) 
(and (or (<= (+ x1 0.5102803541) x2) (or (<= (+ x2 0.1528292723) x1) (or (>= (- y1 0.9168193762) y2) (or (>= (- y2 0.7725764712) y1))))) 
(and (or (<= (+ x1 0.5102803541) x3) (or (<= (+ x3 0.5818786782) x1) (or (>= (- y1 0.9168193762) y3) (or (>= (- y3 0.7626947963) y1))))) 
(and (or (<= (+ x1 0.5102803541) x4) (or (<= (+ x4 0.7999535359) x1) (or (>= (- y1 0.9168193762) y4) (or (>= (- y4 0.7030258771) y1))))) 
(and (or (<= (+ x1 0.5102803541) x5) (or (<= (+ x5 0.3409047916) x1) (or (>= (- y1 0.9168193762) y5) (or (>= (- y5 0.4098472454) y1))))) 
(and (or (<= (+ x1 0.5102803541) x6) (or (<= (+ x6 0.6986178625) x1) (or (>= (- y1 0.9168193762) y6) (or (>= (- y6 0.1592361894) y1))))) 
(and (or (<= (+ x1 0.5102803541) x7) (or (<= (+ x7 0.6294433589) x1) (or (>= (- y1 0.9168193762) y7) (or (>= (- y7 0.0498145641) y1))))) 
(and (or (<= (+ x1 0.5102803541) x8) (or (<= (+ x8 0.393124284) x1) (or (>= (- y1 0.9168193762) y8) (or (>= (- y8 0.0188309149) y1))))) 
(and (or (<= (+ x2 0.1528292723) x3) (or (<= (+ x3 0.5818786782) x2) (or (>= (- y2 0.7725764712) y3) (or (>= (- y3 0.7626947963) y2))))) 
(and (or (<= (+ x2 0.1528292723) x4) (or (<= (+ x4 0.7999535359) x2) (or (>= (- y2 0.7725764712) y4) (or (>= (- y4 0.7030258771) y2))))) 
(and (or (<= (+ x2 0.1528292723) x5) (or (<= (+ x5 0.3409047916) x2) (or (>= (- y2 0.7725764712) y5) (or (>= (- y5 0.4098472454) y2))))) 
(and (or (<= (+ x2 0.1528292723) x6) (or (<= (+ x6 0.6986178625) x2) (or (>= (- y2 0.7725764712) y6) (or (>= (- y6 0.1592361894) y2))))) 
(and (or (<= (+ x2 0.1528292723) x7) (or (<= (+ x7 0.6294433589) x2) (or (>= (- y2 0.7725764712) y7) (or (>= (- y7 0.0498145641) y2))))) 
(and (or (<= (+ x2 0.1528292723) x8) (or (<= (+ x8 0.393124284) x2) (or (>= (- y2 0.7725764712) y8) (or (>= (- y8 0.0188309149) y2))))) 
(and (or (<= (+ x3 0.5818786782) x4) (or (<= (+ x4 0.7999535359) x3) (or (>= (- y3 0.7626947963) y4) (or (>= (- y4 0.7030258771) y3))))) 
(and (or (<= (+ x3 0.5818786782) x5) (or (<= (+ x5 0.3409047916) x3) (or (>= (- y3 0.7626947963) y5) (or (>= (- y5 0.4098472454) y3))))) 
(and (or (<= (+ x3 0.5818786782) x6) (or (<= (+ x6 0.6986178625) x3) (or (>= (- y3 0.7626947963) y6) (or (>= (- y6 0.1592361894) y3))))) 
(and (or (<= (+ x3 0.5818786782) x7) (or (<= (+ x7 0.6294433589) x3) (or (>= (- y3 0.7626947963) y7) (or (>= (- y7 0.0498145641) y3))))) 
(and (or (<= (+ x3 0.5818786782) x8) (or (<= (+ x8 0.393124284) x3) (or (>= (- y3 0.7626947963) y8) (or (>= (- y8 0.0188309149) y3))))) 
(and (or (<= (+ x4 0.7999535359) x5) (or (<= (+ x5 0.3409047916) x4) (or (>= (- y4 0.7030258771) y5) (or (>= (- y5 0.4098472454) y4))))) 
(and (or (<= (+ x4 0.7999535359) x6) (or (<= (+ x6 0.6986178625) x4) (or (>= (- y4 0.7030258771) y6) (or (>= (- y6 0.1592361894) y4))))) 
(and (or (<= (+ x4 0.7999535359) x7) (or (<= (+ x7 0.6294433589) x4) (or (>= (- y4 0.7030258771) y7) (or (>= (- y7 0.0498145641) y4))))) 
(and (or (<= (+ x4 0.7999535359) x8) (or (<= (+ x8 0.393124284) x4) (or (>= (- y4 0.7030258771) y8) (or (>= (- y8 0.0188309149) y4))))) 
(and (or (<= (+ x5 0.3409047916) x6) (or (<= (+ x6 0.6986178625) x5) (or (>= (- y5 0.4098472454) y6) (or (>= (- y6 0.1592361894) y5))))) 
(and (or (<= (+ x5 0.3409047916) x7) (or (<= (+ x7 0.6294433589) x5) (or (>= (- y5 0.4098472454) y7) (or (>= (- y7 0.0498145641) y5))))) 
(and (or (<= (+ x5 0.3409047916) x8) (or (<= (+ x8 0.393124284) x5) (or (>= (- y5 0.4098472454) y8) (or (>= (- y8 0.0188309149) y5))))) 
(and (or (<= (+ x6 0.6986178625) x7) (or (<= (+ x7 0.6294433589) x6) (or (>= (- y6 0.1592361894) y7) (or (>= (- y7 0.0498145641) y6))))) 
(and (or (<= (+ x6 0.6986178625) x8) (or (<= (+ x8 0.393124284) x6) (or (>= (- y6 0.1592361894) y8) (or (>= (- y8 0.0188309149) y6))))) 
(and (or (<= (+ x7 0.6294433589) x8) (or (<= (+ x8 0.393124284) x7) (or (>= (- y7 0.0498145641) y8) (or (>= (- y8 0.0188309149) y7))))) ))))))))))))))))))))))))))))))))))))))))))))))))))))))))))))))))))))))))))))))))))))))))))))))))))))))))
(minimize c)
(check-sat)
(get-objectives)
(exit)
